p cnf 200 3170
1 2 3 4 5 0
6 7 8 9 10 0
11 12 13 14 15 0
16 17 18 19 20 0
21 22 23 24 25 0
26 27 28 29 30 0
31 32 33 34 35 0
36 37 38 39 40 0
41 42 43 44 45 0
46 47 48 49 50 0
51 52 53 54 55 0
56 57 58 59 60 0
61 62 63 64 65 0
66 67 68 69 70 0
71 72 73 74 75 0
76 77 78 79 80 0
81 82 83 84 85 0
86 87 88 89 90 0
91 92 93 94 95 0
96 97 98 99 100 0
101 102 103 104 105 0
106 107 108 109 110 0
111 112 113 114 115 0
116 117 118 119 120 0
121 122 123 124 125 0
126 127 128 129 130 0
131 132 133 134 135 0
136 137 138 139 140 0
141 142 143 144 145 0
146 147 148 149 150 0
151 152 153 154 155 0
156 157 158 159 160 0
161 162 163 164 165 0
166 167 168 169 170 0
171 172 173 174 175 0
176 177 178 179 180 0
181 182 183 184 185 0
186 187 188 189 190 0
191 192 193 194 195 0
196 197 198 199 200 0
-1 -2 0
-1 -3 0
-1 -4 0
-1 -5 0
-2 -3 0
-2 -4 0
-2 -5 0
-3 -4 0
-3 -5 0
-4 -5 0
-6 -7 0
-6 -8 0
-6 -9 0
-6 -10 0
-7 -8 0
-7 -9 0
-7 -10 0
-8 -9 0
-8 -10 0
-9 -10 0
-11 -12 0
-11 -13 0
-11 -14 0
-11 -15 0
-12 -13 0
-12 -14 0
-12 -15 0
-13 -14 0
-13 -15 0
-14 -15 0
-16 -17 0
-16 -18 0
-16 -19 0
-16 -20 0
-17 -18 0
-17 -19 0
-17 -20 0
-18 -19 0
-18 -20 0
-19 -20 0
-21 -22 0
-21 -23 0
-21 -24 0
-21 -25 0
-22 -23 0
-22 -24 0
-22 -25 0
-23 -24 0
-23 -25 0
-24 -25 0
-26 -27 0
-26 -28 0
-26 -29 0
-26 -30 0
-27 -28 0
-27 -29 0
-27 -30 0
-28 -29 0
-28 -30 0
-29 -30 0
-31 -32 0
-31 -33 0
-31 -34 0
-31 -35 0
-32 -33 0
-32 -34 0
-32 -35 0
-33 -34 0
-33 -35 0
-34 -35 0
-36 -37 0
-36 -38 0
-36 -39 0
-36 -40 0
-37 -38 0
-37 -39 0
-37 -40 0
-38 -39 0
-38 -40 0
-39 -40 0
-41 -42 0
-41 -43 0
-41 -44 0
-41 -45 0
-42 -43 0
-42 -44 0
-42 -45 0
-43 -44 0
-43 -45 0
-44 -45 0
-46 -47 0
-46 -48 0
-46 -49 0
-46 -50 0
-47 -48 0
-47 -49 0
-47 -50 0
-48 -49 0
-48 -50 0
-49 -50 0
-51 -52 0
-51 -53 0
-51 -54 0
-51 -55 0
-52 -53 0
-52 -54 0
-52 -55 0
-53 -54 0
-53 -55 0
-54 -55 0
-56 -57 0
-56 -58 0
-56 -59 0
-56 -60 0
-57 -58 0
-57 -59 0
-57 -60 0
-58 -59 0
-58 -60 0
-59 -60 0
-61 -62 0
-61 -63 0
-61 -64 0
-61 -65 0
-62 -63 0
-62 -64 0
-62 -65 0
-63 -64 0
-63 -65 0
-64 -65 0
-66 -67 0
-66 -68 0
-66 -69 0
-66 -70 0
-67 -68 0
-67 -69 0
-67 -70 0
-68 -69 0
-68 -70 0
-69 -70 0
-71 -72 0
-71 -73 0
-71 -74 0
-71 -75 0
-72 -73 0
-72 -74 0
-72 -75 0
-73 -74 0
-73 -75 0
-74 -75 0
-76 -77 0
-76 -78 0
-76 -79 0
-76 -80 0
-77 -78 0
-77 -79 0
-77 -80 0
-78 -79 0
-78 -80 0
-79 -80 0
-81 -82 0
-81 -83 0
-81 -84 0
-81 -85 0
-82 -83 0
-82 -84 0
-82 -85 0
-83 -84 0
-83 -85 0
-84 -85 0
-86 -87 0
-86 -88 0
-86 -89 0
-86 -90 0
-87 -88 0
-87 -89 0
-87 -90 0
-88 -89 0
-88 -90 0
-89 -90 0
-91 -92 0
-91 -93 0
-91 -94 0
-91 -95 0
-92 -93 0
-92 -94 0
-92 -95 0
-93 -94 0
-93 -95 0
-94 -95 0
-96 -97 0
-96 -98 0
-96 -99 0
-96 -100 0
-97 -98 0
-97 -99 0
-97 -100 0
-98 -99 0
-98 -100 0
-99 -100 0
-101 -102 0
-101 -103 0
-101 -104 0
-101 -105 0
-102 -103 0
-102 -104 0
-102 -105 0
-103 -104 0
-103 -105 0
-104 -105 0
-106 -107 0
-106 -108 0
-106 -109 0
-106 -110 0
-107 -108 0
-107 -109 0
-107 -110 0
-108 -109 0
-108 -110 0
-109 -110 0
-111 -112 0
-111 -113 0
-111 -114 0
-111 -115 0
-112 -113 0
-112 -114 0
-112 -115 0
-113 -114 0
-113 -115 0
-114 -115 0
-116 -117 0
-116 -118 0
-116 -119 0
-116 -120 0
-117 -118 0
-117 -119 0
-117 -120 0
-118 -119 0
-118 -120 0
-119 -120 0
-121 -122 0
-121 -123 0
-121 -124 0
-121 -125 0
-122 -123 0
-122 -124 0
-122 -125 0
-123 -124 0
-123 -125 0
-124 -125 0
-126 -127 0
-126 -128 0
-126 -129 0
-126 -130 0
-127 -128 0
-127 -129 0
-127 -130 0
-128 -129 0
-128 -130 0
-129 -130 0
-131 -132 0
-131 -133 0
-131 -134 0
-131 -135 0
-132 -133 0
-132 -134 0
-132 -135 0
-133 -134 0
-133 -135 0
-134 -135 0
-136 -137 0
-136 -138 0
-136 -139 0
-136 -140 0
-137 -138 0
-137 -139 0
-137 -140 0
-138 -139 0
-138 -140 0
-139 -140 0
-141 -142 0
-141 -143 0
-141 -144 0
-141 -145 0
-142 -143 0
-142 -144 0
-142 -145 0
-143 -144 0
-143 -145 0
-144 -145 0
-146 -147 0
-146 -148 0
-146 -149 0
-146 -150 0
-147 -148 0
-147 -149 0
-147 -150 0
-148 -149 0
-148 -150 0
-149 -150 0
-151 -152 0
-151 -153 0
-151 -154 0
-151 -155 0
-152 -153 0
-152 -154 0
-152 -155 0
-153 -154 0
-153 -155 0
-154 -155 0
-156 -157 0
-156 -158 0
-156 -159 0
-156 -160 0
-157 -158 0
-157 -159 0
-157 -160 0
-158 -159 0
-158 -160 0
-159 -160 0
-161 -162 0
-161 -163 0
-161 -164 0
-161 -165 0
-162 -163 0
-162 -164 0
-162 -165 0
-163 -164 0
-163 -165 0
-164 -165 0
-166 -167 0
-166 -168 0
-166 -169 0
-166 -170 0
-167 -168 0
-167 -169 0
-167 -170 0
-168 -169 0
-168 -170 0
-169 -170 0
-171 -172 0
-171 -173 0
-171 -174 0
-171 -175 0
-172 -173 0
-172 -174 0
-172 -175 0
-173 -174 0
-173 -175 0
-174 -175 0
-176 -177 0
-176 -178 0
-176 -179 0
-176 -180 0
-177 -178 0
-177 -179 0
-177 -180 0
-178 -179 0
-178 -180 0
-179 -180 0
-181 -182 0
-181 -183 0
-181 -184 0
-181 -185 0
-182 -183 0
-182 -184 0
-182 -185 0
-183 -184 0
-183 -185 0
-184 -185 0
-186 -187 0
-186 -188 0
-186 -189 0
-186 -190 0
-187 -188 0
-187 -189 0
-187 -190 0
-188 -189 0
-188 -190 0
-189 -190 0
-191 -192 0
-191 -193 0
-191 -194 0
-191 -195 0
-192 -193 0
-192 -194 0
-192 -195 0
-193 -194 0
-193 -195 0
-194 -195 0
-196 -197 0
-196 -198 0
-196 -199 0
-196 -200 0
-197 -198 0
-197 -199 0
-197 -200 0
-198 -199 0
-198 -200 0
-199 -200 0
-1 -9 0
-4 -9 0
-3 -7 0
-5 -8 0
-1 -8 0
-4 -8 0
-2 -10 0
-3 -18 0
-2 -18 0
-5 -20 0
-1 -20 0
-5 -16 0
-5 -18 0
-1 -18 0
-5 -32 0
-3 -33 0
-5 -31 0
-5 -33 0
-1 -31 0
-1 -33 0
-5 -34 0
-5 -42 0
-1 -45 0
-3 -45 0
-1 -41 0
-5 -43 0
-2 -44 0
-1 -42 0
-1 -53 0
-1 -55 0
-5 -55 0
-2 -53 0
-4 -54 0
-5 -51 0
-3 -51 0
-5 -58 0
-1 -56 0
-2 -56 0
-4 -58 0
-5 -57 0
-1 -59 0
-1 -60 0
-4 -74 0
-3 -75 0
-2 -71 0
-1 -75 0
-1 -71 0
-5 -71 0
-5 -75 0
-5 -77 0
-1 -80 0
-3 -79 0
-5 -79 0
-2 -76 0
-2 -79 0
-4 -79 0
-3 -91 0
-4 -94 0
-2 -93 0
-5 -91 0
-3 -95 0
-5 -95 0
-4 -91 0
-5 -102 0
-2 -103 0
-1 -102 0
-3 -101 0
-4 -105 0
-4 -103 0
-2 -102 0
-1 -113 0
-2 -114 0
-1 -114 0
-5 -113 0
-2 -111 0
-1 -112 0
-2 -112 0
-3 -134 0
-4 -131 0
-5 -135 0
-3 -132 0
-2 -133 0
-4 -132 0
-1 -132 0
-2 -145 0
-5 -144 0
-5 -141 0
-1 -143 0
-5 -143 0
-4 -143 0
-3 -145 0
-5 -169 0
-4 -167 0
-2 -168 0
-2 -166 0
-5 -167 0
-3 -170 0
-3 -167 0
-4 -171 0
-1 -175 0
-4 -172 0
-1 -174 0
-4 -175 0
-5 -174 0
-4 -173 0
-1 -185 0
-3 -185 0
-4 -182 0
-5 -181 0
-5 -182 0
-5 -184 0
-3 -184 0
-2 -187 0
-3 -189 0
-2 -186 0
-3 -186 0
-2 -188 0
-1 -189 0
-1 -190 0
-1 -192 0
-4 -195 0
-3 -192 0
-5 -192 0
-5 -195 0
-4 -192 0
-1 -193 0
-7 -20 0
-6 -16 0
-10 -16 0
-7 -16 0
-9 -20 0
-10 -17 0
-6 -17 0
-6 -47 0
-8 -47 0
-7 -48 0
-9 -49 0
-9 -50 0
-10 -49 0
-6 -48 0
-6 -53 0
-10 -55 0
-6 -54 0
-7 -55 0
-7 -52 0
-6 -55 0
-7 -54 0
-8 -77 0
-7 -78 0
-10 -76 0
-9 -79 0
-7 -76 0
-9 -78 0
-10 -77 0
-6 -96 0
-7 -98 0
-7 -96 0
-9 -97 0
-7 -99 0
-9 -99 0
-7 -97 0
-7 -102 0
-10 -105 0
-6 -102 0
-6 -103 0
-8 -104 0
-10 -101 0
-7 -105 0
-8 -106 0
-10 -109 0
-9 -109 0
-10 -107 0
-8 -110 0
-10 -110 0
-6 -110 0
-10 -122 0
-10 -124 0
-8 -122 0
-6 -121 0
-6 -124 0
-9 -123 0
-9 -124 0
-8 -129 0
-8 -126 0
-7 -128 0
-6 -127 0
-10 -127 0
-6 -126 0
-10 -128 0
-8 -147 0
-7 -149 0
-6 -146 0
-7 -148 0
-10 -148 0
-6 -148 0
-6 -149 0
-6 -159 0
-7 -159 0
-10 -156 0
-9 -158 0
-9 -156 0
-7 -157 0
-9 -160 0
-6 -162 0
-10 -163 0
-9 -163 0
-8 -161 0
-7 -165 0
-8 -165 0
-9 -162 0
-6 -169 0
-7 -166 0
-9 -166 0
-6 -166 0
-8 -170 0
-9 -168 0
-7 -167 0
-10 -180 0
-8 -177 0
-10 -179 0
-7 -177 0
-8 -176 0
-10 -176 0
-7 -176 0
-8 -188 0
-7 -186 0
-10 -188 0
-6 -190 0
-8 -186 0
-9 -190 0
-9 -189 0
-6 -199 0
-7 -199 0
-8 -196 0
-6 -197 0
-9 -200 0
-10 -196 0
-9 -196 0
-14 -16 0
-12 -20 0
-11 -18 0
-13 -16 0
-15 -16 0
-15 -17 0
-13 -20 0
-14 -24 0
-12 -24 0
-13 -25 0
-15 -22 0
-15 -21 0
-11 -25 0
-13 -24 0
-11 -33 0
-14 -35 0
-11 -32 0
-15 -33 0
-11 -31 0
-14 -32 0
-11 -35 0
-12 -50 0
-15 -49 0
-13 -48 0
-11 -48 0
-15 -48 0
-11 -46 0
-14 -48 0
-14 -62 0
-15 -64 0
-11 -65 0
-15 -65 0
-13 -61 0
-12 -62 0
-13 -62 0
-11 -87 0
-15 -89 0
-12 -89 0
-14 -86 0
-12 -90 0
-14 -88 0
-11 -90 0
-14 -105 0
-11 -104 0
-12 -101 0
-14 -102 0
-12 -104 0
-14 -101 0
-15 -104 0
-15 -108 0
-13 -109 0
-15 -107 0
-14 -107 0
-13 -110 0
-14 -106 0
-11 -109 0
-15 -119 0
-11 -119 0
-14 -120 0
-11 -117 0
-13 -119 0
-11 -118 0
-12 -116 0
-15 -135 0
-13 -134 0
-11 -133 0
-12 -133 0
-11 -131 0
-15 -131 0
-14 -133 0
-11 -165 0
-11 -164 0
-11 -162 0
-15 -165 0
-11 -161 0
-14 -163 0
-14 -162 0
-11 -168 0
-11 -166 0
-14 -167 0
-13 -168 0
-15 -167 0
-13 -166 0
-12 -168 0
-12 -187 0
-14 -189 0
-12 -189 0
-13 -190 0
-11 -187 0
-15 -187 0
-13 -188 0
-16 -26 0
-19 -30 0
-17 -27 0
-20 -26 0
-18 -26 0
-20 -27 0
-20 -29 0
-17 -33 0
-20 -35 0
-18 -34 0
-18 -35 0
-19 -35 0
-16 -35 0
-17 -35 0
-18 -36 0
-16 -38 0
-17 -40 0
-20 -39 0
-20 -37 0
-19 -40 0
-19 -38 0
-20 -63 0
-17 -64 0
-16 -64 0
-18 -65 0
-18 -61 0
-18 -63 0
-17 -61 0
-19 -66 0
-17 -68 0
-17 -67 0
-16 -70 0
-19 -69 0
-20 -68 0
-18 -67 0
-17 -82 0
-16 -81 0
-19 -84 0
-18 -85 0
-17 -84 0
-20 -82 0
-18 -81 0
-20 -89 0
-17 -87 0
-20 -86 0
-18 -86 0
-17 -90 0
-16 -86 0
-17 -86 0
-16 -95 0
-20 -93 0
-19 -91 0
-18 -94 0
-19 -93 0
-18 -95 0
-16 -91 0
-20 -98 0
-17 -100 0
-17 -97 0
-19 -99 0
-17 -96 0
-18 -97 0
-19 -100 0
-19 -113 0
-18 -113 0
-17 -114 0
-18 -111 0
-16 -113 0
-18 -114 0
-19 -111 0
-19 -140 0
-16 -139 0
-20 -138 0
-19 -138 0
-20 -140 0
-17 -137 0
-16 -137 0
-17 -149 0
-18 -150 0
-16 -150 0
-17 -148 0
-16 -146 0
-19 -150 0
-20 -146 0
-17 -165 0
-19 -165 0
-20 -165 0
-19 -161 0
-17 -162 0
-19 -164 0
-17 -163 0
-18 -172 0
-17 -172 0
-17 -175 0
-19 -174 0
-19 -173 0
-17 -173 0
-18 -175 0
-16 -182 0
-20 -182 0
-17 -182 0
-17 -181 0
-16 -181 0
-17 -183 0
-20 -181 0
-16 -188 0
-18 -190 0
-16 -186 0
-17 -186 0
-18 -186 0
-19 -187 0
-17 -189 0
-19 -191 0
-19 -194 0
-16 -192 0
-17 -195 0
-20 -194 0
-18 -194 0
-20 -195 0
-21 -30 0
-22 -28 0
-22 -29 0
-25 -27 0
-25 -29 0
-23 -27 0
-24 -27 0
-21 -35 0
-22 -33 0
-23 -35 0
-22 -32 0
-23 -33 0
-21 -34 0
-22 -35 0
-22 -42 0
-21 -45 0
-21 -41 0
-25 -41 0
-25 -45 0
-22 -44 0
-23 -44 0
-25 -59 0
-23 -59 0
-23 -58 0
-22 -58 0
-25 -58 0
-24 -56 0
-22 -57 0
-22 -62 0
-22 -63 0
-24 -62 0
-25 -63 0
-22 -65 0
-24 -65 0
-23 -63 0
-24 -69 0
-22 -68 0
-21 -67 0
-25 -67 0
-21 -68 0
-24 -68 0
-24 -67 0
-21 -77 0
-25 -78 0
-25 -77 0
-25 -80 0
-22 -79 0
-21 -78 0
-23 -76 0
-24 -89 0
-21 -88 0
-25 -86 0
-21 -86 0
-25 -87 0
-25 -88 0
-25 -89 0
-25 -94 0
-24 -95 0
-25 -93 0
-25 -92 0
-22 -95 0
-22 -91 0
-22 -92 0
-22 -98 0
-22 -100 0
-21 -100 0
-23 -97 0
-25 -98 0
-25 -97 0
-24 -97 0
-21 -111 0
-22 -111 0
-21 -114 0
-24 -112 0
-25 -112 0
-24 -113 0
-25 -114 0
-25 -117 0
-23 -119 0
-24 -116 0
-23 -117 0
-24 -120 0
-21 -116 0
-22 -119 0
-21 -138 0
-22 -138 0
-24 -139 0
-23 -136 0
-23 -137 0
-24 -140 0
-25 -137 0
-25 -143 0
-22 -142 0
-22 -145 0
-24 -144 0
-21 -142 0
-22 -144 0
-25 -145 0
-21 -151 0
-21 -155 0
-23 -155 0
-21 -154 0
-24 -154 0
-23 -153 0
-24 -152 0
-21 -162 0
-21 -163 0
-22 -161 0
-22 -163 0
-25 -164 0
-24 -164 0
-24 -165 0
-25 -175 0
-23 -172 0
-23 -171 0
-25 -174 0
-25 -171 0
-21 -175 0
-22 -173 0
-22 -180 0
-22 -178 0
-23 -180 0
-23 -178 0
-25 -180 0
-21 -177 0
-21 -178 0
-22 -183 0
-21 -185 0
-24 -184 0
-22 -185 0
-25 -181 0
-22 -184 0
-24 -185 0
-21 -199 0
-23 -197 0
-24 -200 0
-22 -196 0
-22 -200 0
-25 -199 0
-23 -199 0
-29 -49 0
-29 -47 0
-29 -50 0
-26 -48 0
-27 -49 0
-26 -50 0
-27 -46 0
-29 -53 0
-30 -53 0
-29 -54 0
-27 -54 0
-28 -52 0
-27 -55 0
-26 -54 0
-26 -57 0
-27 -56 0
-30 -56 0
-30 -59 0
-29 -57 0
-30 -57 0
-29 -59 0
-29 -67 0
-27 -69 0
-30 -66 0
-30 -70 0
-29 -68 0
-28 -66 0
-27 -67 0
-28 -73 0
-28 -75 0
-30 -74 0
-30 -73 0
-29 -73 0
-29 -74 0
-28 -74 0
-28 -95 0
-26 -93 0
-27 -92 0
-27 -94 0
-27 -91 0
-26 -95 0
-28 -92 0
-30 -100 0
-26 -99 0
-27 -99 0
-29 -98 0
-30 -99 0
-28 -97 0
-26 -96 0
-30 -120 0
-28 -116 0
-26 -119 0
-27 -117 0
-27 -116 0
-29 -119 0
-29 -120 0
-29 -128 0
-27 -130 0
-28 -130 0
-28 -129 0
-26 -130 0
-28 -126 0
-29 -127 0
-28 -136 0
-28 -139 0
-26 -140 0
-30 -137 0
-28 -140 0
-26 -136 0
-29 -138 0
-30 -143 0
-28 -142 0
-29 -142 0
-28 -143 0
-26 -142 0
-29 -144 0
-30 -142 0
-26 -150 0
-28 -150 0
-26 -149 0
-30 -150 0
-30 -148 0
-29 -149 0
-30 -147 0
-29 -153 0
-29 -152 0
-26 -155 0
-28 -154 0
-27 -155 0
-26 -152 0
-28 -151 0
-30 -165 0
-28 -162 0
-26 -165 0
-28 -165 0
-27 -165 0
-29 -161 0
-29 -162 0
-30 -167 0
-29 -166 0
-28 -169 0
-27 -167 0
-28 -170 0
-26 -170 0
-30 -168 0
-29 -171 0
-30 -171 0
-28 -171 0
-26 -175 0
-26 -172 0
-29 -174 0
-30 -174 0
-27 -176 0
-26 -180 0
-30 -176 0
-27 -179 0
-29 -179 0
-28 -176 0
-26 -179 0
-28 -183 0
-28 -181 0
-28 -182 0
-28 -184 0
-26 -182 0
-28 -185 0
-27 -182 0
-29 -190 0
-26 -188 0
-28 -189 0
-30 -186 0
-26 -189 0
-28 -188 0
-29 -186 0
-31 -50 0
-32 -50 0
-34 -48 0
-31 -48 0
-34 -47 0
-35 -47 0
-33 -48 0
-35 -57 0
-34 -58 0
-33 -60 0
-33 -59 0
-32 -60 0
-31 -59 0
-32 -57 0
-34 -61 0
-32 -64 0
-34 -63 0
-34 -65 0
-32 -65 0
-32 -63 0
-35 -64 0
-34 -74 0
-35 -71 0
-32 -73 0
-31 -71 0
-34 -71 0
-34 -75 0
-33 -72 0
-35 -85 0
-35 -84 0
-31 -81 0
-31 -82 0
-32 -81 0
-32 -85 0
-34 -82 0
-35 -86 0
-31 -86 0
-31 -87 0
-33 -88 0
-32 -89 0
-31 -89 0
-34 -86 0
-35 -94 0
-35 -95 0
-35 -93 0
-34 -91 0
-34 -94 0
-35 -92 0
-32 -92 0
-31 -105 0
-31 -102 0
-35 -102 0
-32 -101 0
-33 -103 0
-35 -101 0
-35 -104 0
-33 -111 0
-33 -113 0
-31 -113 0
-34 -112 0
-31 -114 0
-35 -111 0
-34 -114 0
-34 -122 0
-31 -123 0
-34 -121 0
-34 -124 0
-35 -122 0
-32 -124 0
-34 -125 0
-34 -129 0
-35 -129 0
-32 -129 0
-34 -128 0
-33 -126 0
-35 -127 0
-33 -127 0
-31 -135 0
-34 -132 0
-34 -135 0
-33 -133 0
-32 -135 0
-34 -134 0
-35 -131 0
-33 -142 0
-35 -141 0
-31 -145 0
-32 -144 0
-33 -144 0
-32 -141 0
-33 -141 0
-32 -151 0
-31 -151 0
-34 -153 0
-35 -151 0
-32 -155 0
-35 -154 0
-32 -154 0
-33 -166 0
-34 -166 0
-33 -169 0
-35 -169 0
-34 -167 0
-31 -167 0
-33 -167 0
-33 -185 0
-31 -182 0
-31 -185 0
-32 -181 0
-33 -184 0
-32 -184 0
-32 -185 0
-34 -193 0
-35 -192 0
-35 -193 0
-31 -193 0
-32 -193 0
-31 -195 0
-34 -195 0
-40 -65 0
-39 -65 0
-37 -62 0
-36 -63 0
-36 -61 0
-37 -63 0
-40 -61 0
-36 -67 0
-36 -66 0
-39 -69 0
-40 -68 0
-40 -69 0
-39 -66 0
-38 -69 0
-40 -71 0
-39 -74 0
-40 -73 0
-38 -73 0
-36 -74 0
-39 -72 0
-37 -71 0
-36 -81 0
-36 -84 0
-37 -84 0
-38 -85 0
-39 -82 0
-40 -83 0
-38 -83 0
-37 -86 0
-40 -90 0
-38 -89 0
-40 -86 0
-36 -86 0
-40 -88 0
-40 -87 0
-38 -107 0
-40 -107 0
-37 -107 0
-39 -109 0
-36 -109 0
-36 -107 0
-40 -106 0
-39 -111 0
-40 -114 0
-38 -114 0
-39 -114 0
-39 -112 0
-37 -112 0
-36 -112 0
-37 -122 0
-37 -124 0
-38 -124 0
-36 -125 0
-39 -125 0
-36 -122 0
-37 -125 0
-40 -126 0
-40 -128 0
-38 -129 0
-36 -127 0
-37 -128 0
-40 -130 0
-37 -127 0
-36 -133 0
-39 -134 0
-40 -135 0
-37 -132 0
-39 -131 0
-39 -132 0
-37 -134 0
-40 -139 0
-37 -140 0
-39 -138 0
-40 -138 0
-37 -136 0
-36 -138 0
-38 -137 0
-36 -144 0
-39 -141 0
-40 -144 0
-36 -145 0
-39 -144 0
-40 -142 0
-40 -145 0
-40 -151 0
-39 -155 0
-38 -153 0
-36 -153 0
-40 -154 0
-37 -152 0
-40 -153 0
-38 -159 0
-40 -156 0
-40 -157 0
-37 -157 0
-40 -160 0
-37 -156 0
-39 -157 0
-39 -163 0
-40 -162 0
-39 -164 0
-39 -162 0
-38 -163 0
-36 -163 0
-38 -164 0
-39 -167 0
-36 -166 0
-40 -169 0
-38 -167 0
-36 -167 0
-38 -170 0
-36 -168 0
-38 -182 0
-37 -182 0
-36 -181 0
-36 -182 0
-38 -181 0
-38 -183 0
-36 -185 0
-39 -188 0
-38 -189 0
-38 -187 0
-36 -189 0
-39 -187 0
-38 -188 0
-37 -186 0
-37 -194 0
-37 -193 0
-36 -192 0
-38 -194 0
-40 -192 0
-39 -193 0
-36 -194 0
-41 -48 0
-43 -47 0
-42 -50 0
-44 -47 0
-43 -49 0
-42 -48 0
-43 -50 0
-42 -55 0
-42 -52 0
-44 -53 0
-44 -51 0
-45 -52 0
-43 -52 0
-42 -54 0
-41 -68 0
-42 -68 0
-43 -68 0
-44 -70 0
-44 -68 0
-43 -66 0
-44 -66 0
-44 -72 0
-44 -75 0
-43 -74 0
-43 -71 0
-41 -72 0
-44 -74 0
-41 -74 0
-45 -88 0
-43 -89 0
-45 -89 0
-43 -87 0
-43 -88 0
-41 -87 0
-43 -90 0
-43 -91 0
-44 -91 0
-44 -92 0
-41 -94 0
-45 -92 0
-41 -93 0
-42 -95 0
-41 -101 0
-45 -105 0
-42 -103 0
-44 -101 0
-43 -104 0
-43 -103 0
-42 -104 0
-42 -106 0
-41 -107 0
-42 -110 0
-41 -110 0
-44 -106 0
-45 -106 0
-44 -110 0
-44 -120 0
-41 -120 0
-45 -120 0
-42 -116 0
-43 -117 0
-41 -117 0
-42 -120 0
-44 -143 0
-44 -145 0
-41 -142 0
-43 -143 0
-44 -141 0
-42 -142 0
-43 -142 0
-45 -161 0
-44 -165 0
-44 -161 0
-43 -162 0
-42 -161 0
-45 -163 0
-41 -164 0
-45 -172 0
-43 -175 0
-44 -175 0
-42 -171 0
-45 -171 0
-42 -172 0
-45 -173 0
-45 -178 0
-44 -178 0
-42 -178 0
-44 -180 0
-44 -177 0
-44 -176 0
-45 -179 0
-43 -188 0
-41 -187 0
-42 -186 0
-45 -186 0
-43 -186 0
-45 -190 0
-41 -190 0
-43 -193 0
-45 -192 0
-41 -193 0
-42 -193 0
-43 -192 0
-41 -191 0
-45 -191 0
-41 -199 0
-44 -197 0
-43 -197 0
-42 -200 0
-41 -200 0
-44 -199 0
-44 -198 0
-50 -58 0
-50 -57 0
-48 -56 0
-50 -59 0
-47 -58 0
-46 -57 0
-49 -57 0
-49 -70 0
-50 -69 0
-46 -66 0
-50 -67 0
-50 -68 0
-47 -66 0
-49 -67 0
-47 -80 0
-50 -79 0
-47 -77 0
-48 -77 0
-50 -80 0
-46 -77 0
-48 -80 0
-46 -83 0
-49 -82 0
-47 -81 0
-48 -82 0
-50 -84 0
-48 -83 0
-46 -85 0
-46 -92 0
-50 -93 0
-48 -94 0
-47 -91 0
-48 -91 0
-47 -94 0
-49 -91 0
-46 -99 0
-48 -98 0
-50 -97 0
-46 -97 0
-49 -97 0
-47 -98 0
-46 -100 0
-50 -101 0
-49 -101 0
-48 -104 0
-46 -103 0
-49 -102 0
-46 -104 0
-47 -104 0
-49 -117 0
-49 -118 0
-47 -116 0
-47 -120 0
-50 -118 0
-48 -120 0
-48 -116 0
-46 -138 0
-46 -137 0
-46 -136 0
-49 -137 0
-49 -139 0
-48 -138 0
-50 -137 0
-47 -150 0
-47 -148 0
-47 -149 0
-50 -149 0
-46 -146 0
-49 -150 0
-47 -147 0
-50 -156 0
-50 -158 0
-46 -160 0
-46 -157 0
-46 -159 0
-47 -158 0
-49 -159 0
-50 -162 0
-50 -161 0
-47 -164 0
-50 -165 0
-46 -161 0
-48 -161 0
-48 -163 0
-47 -170 0
-49 -166 0
-48 -170 0
-47 -169 0
-50 -167 0
-48 -167 0
-49 -169 0
-46 -178 0
-48 -178 0
-47 -179 0
-48 -176 0
-49 -178 0
-47 -177 0
-50 -176 0
-48 -196 0
-50 -198 0
-50 -196 0
-49 -197 0
-49 -196 0
-50 -197 0
-50 -199 0
-54 -61 0
-54 -64 0
-55 -63 0
-51 -65 0
-53 -65 0
-55 -62 0
-52 -65 0
-52 -105 0
-54 -104 0
-53 -103 0
-52 -101 0
-54 -105 0
-51 -101 0
-52 -102 0
-55 -110 0
-51 -108 0
-52 -109 0
-54 -109 0
-52 -108 0
-52 -106 0
-51 -109 0
-52 -130 0
-53 -126 0
-54 -126 0
-53 -129 0
-51 -128 0
-52 -129 0
-55 -127 0
-52 -135 0
-51 -131 0
-53 -135 0
-53 -133 0
-53 -132 0
-54 -135 0
-51 -134 0
-52 -137 0
-51 -137 0
-51 -139 0
-53 -137 0
-54 -139 0
-55 -138 0
-54 -138 0
-51 -142 0
-53 -144 0
-53 -145 0
-52 -144 0
-55 -142 0
-52 -142 0
-53 -141 0
-55 -146 0
-55 -150 0
-51 -146 0
-51 -147 0
-54 -146 0
-52 -146 0
-52 -147 0
-53 -161 0
-55 -163 0
-52 -164 0
-53 -163 0
-53 -164 0
-51 -162 0
-54 -161 0
-52 -174 0
-51 -175 0
-54 -172 0
-52 -172 0
-55 -174 0
-52 -175 0
-51 -174 0
-53 -181 0
-54 -182 0
-53 -184 0
-54 -184 0
-51 -182 0
-53 -185 0
-52 -184 0
-53 -187 0
-52 -189 0
-52 -186 0
-54 -189 0
-54 -186 0
-52 -188 0
-55 -189 0
-60 -68 0
-58 -69 0
-58 -67 0
-56 -68 0
-58 -70 0
-57 -67 0
-60 -66 0
-60 -73 0
-58 -72 0
-59 -75 0
-58 -75 0
-57 -74 0
-59 -73 0
-57 -73 0
-58 -78 0
-59 -76 0
-57 -80 0
-58 -76 0
-58 -80 0
-59 -77 0
-57 -79 0
-57 -81 0
-57 -85 0
-60 -82 0
-56 -84 0
-58 -82 0
-60 -81 0
-60 -84 0
-59 -90 0
-58 -89 0
-57 -90 0
-58 -86 0
-59 -89 0
-59 -87 0
-60 -90 0
-60 -91 0
-59 -93 0
-56 -93 0
-57 -94 0
-58 -91 0
-58 -92 0
-60 -92 0
-56 -100 0
-57 -99 0
-60 -100 0
-59 -100 0
-56 -98 0
-60 -97 0
-59 -97 0
-58 -106 0
-56 -109 0
-60 -108 0
-59 -107 0
-58 -110 0
-59 -108 0
-59 -109 0
-59 -113 0
-58 -114 0
-60 -111 0
-60 -114 0
-60 -112 0
-56 -115 0
-58 -113 0
-57 -120 0
-60 -120 0
-60 -117 0
-60 -118 0
-57 -118 0
-58 -119 0
-59 -120 0
-60 -121 0
-57 -123 0
-60 -123 0
-60 -124 0
-59 -123 0
-59 -121 0
-56 -125 0
-58 -128 0
-57 -130 0
-57 -128 0
-57 -126 0
-56 -127 0
-59 -128 0
-60 -129 0
-59 -132 0
-56 -135 0
-59 -131 0
-59 -133 0
-57 -135 0
-60 -135 0
-60 -134 0
-59 -148 0
-59 -147 0
-60 -148 0
-56 -148 0
-57 -148 0
-59 -146 0
-58 -150 0
-57 -155 0
-59 -153 0
-56 -153 0
-60 -155 0
-57 -152 0
-60 -152 0
-57 -153 0
-59 -157 0
-59 -158 0
-56 -157 0
-60 -156 0
-57 -156 0
-60 -160 0
-57 -158 0
-59 -167 0
-59 -168 0
-58 -168 0
-57 -166 0
-57 -169 0
-58 -169 0
-56 -166 0
-59 -177 0
-60 -179 0
-60 -177 0
-60 -178 0
-57 -177 0
-58 -177 0
-57 -176 0
-56 -189 0
-57 -186 0
-59 -187 0
-59 -189 0
-59 -188 0
-58 -188 0
-57 -189 0
-57 -195 0
-56 -193 0
-57 -194 0
-58 -193 0
-59 -193 0
-56 -195 0
-56 -194 0
-61 -71 0
-62 -71 0
-65 -72 0
-63 -74 0
-62 -72 0
-62 -75 0
-61 -73 0
-63 -76 0
-62 -80 0
-61 -78 0
-64 -80 0
-64 -76 0
-65 -76 0
-65 -78 0
-65 -93 0
-63 -93 0
-63 -94 0
-62 -95 0
-61 -92 0
-61 -95 0
-62 -93 0
-63 -99 0
-63 -96 0
-65 -97 0
-64 -98 0
-62 -97 0
-63 -97 0
-64 -99 0
-63 -112 0
-62 -114 0
-64 -115 0
-61 -115 0
-65 -112 0
-64 -113 0
-63 -111 0
-63 -118 0
-63 -117 0
-64 -118 0
-61 -116 0
-63 -116 0
-61 -120 0
-61 -117 0
-62 -141 0
-62 -145 0
-63 -141 0
-61 -142 0
-64 -144 0
-63 -142 0
-65 -141 0
-65 -153 0
-64 -152 0
-63 -155 0
-62 -155 0
-61 -155 0
-61 -154 0
-62 -151 0
-64 -170 0
-64 -167 0
-65 -167 0
-61 -168 0
-61 -166 0
-65 -166 0
-62 -168 0
-63 -176 0
-61 -176 0
-64 -176 0
-62 -176 0
-63 -177 0
-62 -180 0
-65 -176 0
-65 -186 0
-64 -188 0
-65 -187 0
-61 -189 0
-62 -190 0
-63 -189 0
-64 -190 0
-63 -198 0
-63 -196 0
-62 -196 0
-64 -198 0
-62 -200 0
-61 -200 0
-62 -199 0
-68 -76 0
-68 -77 0
-69 -80 0
-66 -80 0
-67 -79 0
-66 -77 0
-67 -78 0
-66 -81 0
-70 -84 0
-66 -83 0
-69 -83 0
-69 -81 0
-67 -82 0
-70 -83 0
-69 -90 0
-66 -86 0
-66 -88 0
-68 -89 0
-68 -87 0
-66 -89 0
-67 -87 0
-66 -105 0
-70 -104 0
-66 -101 0
-69 -101 0
-66 -102 0
-68 -103 0
-70 -103 0
-69 -106 0
-66 -108 0
-67 -108 0
-66 -110 0
-68 -107 0
-70 -110 0
-66 -106 0
-66 -117 0
-68 -117 0
-68 -120 0
-70 -117 0
-69 -117 0
-70 -119 0
-66 -120 0
-67 -140 0
-66 -136 0
-66 -139 0
-66 -140 0
-67 -139 0
-69 -140 0
-70 -137 0
-68 -141 0
-69 -141 0
-67 -142 0
-70 -145 0
-69 -142 0
-66 -145 0
-70 -144 0
-66 -159 0
-68 -158 0
-67 -159 0
-70 -159 0
-68 -156 0
-67 -156 0
-69 -158 0
-68 -164 0
-68 -163 0
-67 -164 0
-66 -162 0
-69 -163 0
-67 -165 0
-68 -165 0
-70 -185 0
-66 -183 0
-70 -182 0
-68 -182 0
-69 -183 0
-67 -181 0
-70 -183 0
-70 -199 0
-69 -196 0
-67 -199 0
-66 -199 0
-70 -198 0
-69 -200 0
-66 -198 0
-75 -98 0
-71 -100 0
-75 -99 0
-71 -97 0
-72 -98 0
-75 -97 0
-72 -97 0
-73 -119 0
-71 -118 0
-72 -120 0
-72 -118 0
-75 -116 0
-71 -119 0
-73 -117 0
-73 -121 0
-74 -123 0
-74 -124 0
-72 -121 0
-75 -122 0
-73 -122 0
-75 -121 0
-75 -129 0
-71 -127 0
-74 -129 0
-71 -130 0
-74 -127 0
-72 -126 0
-75 -127 0
-74 -135 0
-73 -135 0
-71 -132 0
-75 -135 0
-72 -131 0
-71 -134 0
-71 -133 0
-75 -160 0
-73 -159 0
-75 -158 0
-74 -160 0
-73 -158 0
-72 -160 0
-71 -158 0
-74 -161 0
-75 -161 0
-72 -163 0
-74 -164 0
-75 -163 0
-71 -163 0
-75 -162 0
-74 -166 0
-72 -168 0
-72 -170 0
-75 -170 0
-72 -166 0
-75 -169 0
-74 -168 0
-73 -171 0
-74 -175 0
-75 -172 0
-73 -173 0
-72 -174 0
-73 -172 0
-72 -175 0
-73 -181 0
-73 -183 0
-73 -185 0
-72 -181 0
-73 -184 0
-75 -181 0
-74 -184 0
-73 -191 0
-71 -192 0
-72 -194 0
-74 -194 0
-75 -193 0
-75 -194 0
-73 -193 0
-80 -86 0
-77 -86 0
-79 -89 0
-76 -90 0
-77 -88 0
-76 -86 0
-79 -87 0
-78 -99 0
-78 -100 0
-80 -98 0
-79 -96 0
-78 -96 0
-79 -99 0
-80 -96 0
-76 -109 0
-76 -106 0
-80 -106 0
-79 -109 0
-79 -107 0
-77 -109 0
-80 -110 0
-78 -153 0
-76 -155 0
-80 -153 0
-78 -155 0
-78 -151 0
-78 -154 0
-79 -152 0
-76 -174 0
-78 -171 0
-78 -173 0
-79 -173 0
-77 -174 0
-80 -174 0
-80 -171 0
-80 -185 0
-80 -184 0
-79 -183 0
-77 -182 0
-76 -183 0
-76 -182 0
-79 -182 0
-80 -186 0
-79 -189 0
-76 -190 0
-77 -187 0
-77 -190 0
-79 -190 0
-80 -190 0
-76 -200 0
-79 -200 0
-76 -199 0
-77 -197 0
-77 -200 0
-76 -197 0
-80 -199 0
-81 -95 0
-84 -92 0
-82 -91 0
-82 -94 0
-82 -95 0
-81 -94 0
-82 -92 0
-81 -105 0
-84 -105 0
-82 -104 0
-81 -103 0
-82 -101 0
-85 -105 0
-84 -101 0
-84 -106 0
-83 -110 0
-85 -107 0
-85 -108 0
-81 -107 0
-84 -108 0
-82 -107 0
-84 -121 0
-81 -124 0
-85 -121 0
-81 -125 0
-84 -122 0
-81 -123 0
-85 -122 0
-84 -144 0
-84 -145 0
-84 -143 0
-81 -142 0
-85 -143 0
-81 -145 0
-83 -144 0
-85 -154 0
-85 -155 0
-83 -153 0
-83 -154 0
-81 -155 0
-83 -155 0
-84 -151 0
-81 -157 0
-85 -156 0
-82 -159 0
-85 -158 0
-82 -157 0
-82 -160 0
-81 -158 0
-81 -164 0
-82 -165 0
-83 -164 0
-83 -165 0
-82 -162 0
-81 -161 0
-84 -161 0
-82 -181 0
-83 -181 0
-81 -185 0
-85 -183 0
-84 -183 0
-85 -181 0
-82 -184 0
-88 -93 0
-86 -95 0
-89 -95 0
-88 -95 0
-89 -92 0
-90 -95 0
-89 -93 0
-87 -104 0
-87 -105 0
-89 -105 0
-88 -104 0
-87 -101 0
-86 -103 0
-89 -101 0
-87 -110 0
-86 -107 0
-86 -108 0
-90 -109 0
-88 -109 0
-89 -106 0
-87 -107 0
-87 -117 0
-89 -118 0
-90 -119 0
-87 -116 0
-86 -117 0
-86 -118 0
-89 -116 0
-87 -129 0
-90 -130 0
-89 -127 0
-90 -128 0
-89 -129 0
-86 -129 0
-89 -130 0
-90 -147 0
-87 -150 0
-90 -150 0
-87 -149 0
-89 -149 0
-86 -150 0
-86 -147 0
-88 -161 0
-87 -161 0
-89 -161 0
-89 -163 0
-90 -165 0
-90 -162 0
-87 -162 0
-90 -172 0
-88 -174 0
-87 -174 0
-86 -175 0
-88 -172 0
-87 -173 0
-89 -173 0
-86 -181 0
-87 -183 0
-86 -182 0
-90 -182 0
-88 -184 0
-89 -182 0
-88 -181 0
-94 -97 0
-94 -98 0
-91 -97 0
-94 -99 0
-93 -96 0
-92 -96 0
-91 -99 0
-92 -103 0
-94 -101 0
-94 -102 0
-93 -103 0
-95 -105 0
-93 -101 0
-92 -101 0
-93 -108 0
-94 -110 0
-93 -107 0
-94 -108 0
-92 -108 0
-94 -109 0
-95 -107 0
-91 -117 0
-91 -116 0
-93 -116 0
-95 -120 0
-92 -117 0
-91 -120 0
-93 -117 0
-92 -121 0
-95 -124 0
-95 -123 0
-91 -122 0
-94 -125 0
-93 -125 0
-94 -124 0
-93 -128 0
-94 -128 0
-93 -127 0
-94 -126 0
-92 -128 0
-92 -127 0
-92 -126 0
-94 -133 0
-93 -134 0
-91 -135 0
-91 -131 0
-91 -133 0
-95 -134 0
-93 -132 0
-92 -137 0
-93 -139 0
-93 -137 0
-92 -139 0
-95 -138 0
-92 -138 0
-95 -140 0
-91 -144 0
-93 -141 0
-95 -144 0
-91 -145 0
-95 -141 0
-92 -141 0
-95 -145 0
-95 -159 0
-93 -160 0
-95 -156 0
-94 -156 0
-91 -160 0
-93 -159 0
-95 -157 0
-92 -168 0
-94 -170 0
-92 -166 0
-95 -166 0
-95 -167 0
-93 -170 0
-95 -169 0
-92 -174 0
-93 -173 0
-91 -171 0
-91 -174 0
-95 -175 0
-93 -175 0
-91 -175 0
-93 -180 0
-92 -179 0
-92 -177 0
-94 -180 0
-95 -177 0
-91 -178 0
-91 -177 0
-93 -189 0
-92 -187 0
-91 -186 0
-91 -188 0
-92 -190 0
-94 -187 0
-95 -186 0
-97 -113 0
-97 -114 0
-96 -114 0
-100 -112 0
-99 -113 0
-96 -113 0
-98 -115 0
-97 -119 0
-96 -116 0
-99 -120 0
-100 -116 0
-98 -118 0
-100 -118 0
-100 -120 0
-99 -128 0
-97 -128 0
-98 -130 0
-100 -129 0
-98 -127 0
-98 -129 0
-96 -130 0
-99 -140 0
-96 -139 0
-97 -138 0
-96 -138 0
-100 -137 0
-100 -139 0
-96 -136 0
-98 -155 0
-100 -154 0
-99 -151 0
-96 -152 0
-100 -153 0
-97 -154 0
-100 -151 0
-99 -162 0
-99 -164 0
-98 -162 0
-96 -162 0
-96 -161 0
-100 -163 0
-100 -164 0
-99 -171 0
-99 -174 0
-96 -174 0
-98 -172 0
-98 -173 0
-100 -172 0
-97 -174 0
-100 -179 0
-97 -177 0
-96 -179 0
-100 -176 0
-99 -177 0
-96 -180 0
-99 -179 0
-99 -194 0
-97 -194 0
-97 -192 0
-96 -193 0
-100 -191 0
-100 -194 0
-96 -191 0
-104 -129 0
-102 -129 0
-103 -126 0
-105 -130 0
-105 -127 0
-103 -129 0
-101 -127 0
-102 -143 0
-103 -143 0
-101 -145 0
-101 -144 0
-105 -143 0
-103 -144 0
-104 -143 0
-104 -148 0
-105 -148 0
-101 -149 0
-101 -146 0
-105 -146 0
-104 -147 0
-101 -147 0
-104 -154 0
-105 -152 0
-103 -155 0
-101 -154 0
-101 -153 0
-104 -151 0
-104 -155 0
-102 -164 0
-101 -165 0
-103 -162 0
-102 -161 0
-105 -163 0
-103 -161 0
-104 -162 0
-101 -175 0
-105 -174 0
-104 -175 0
-101 -171 0
-104 -174 0
-105 -172 0
-102 -172 0
-102 -180 0
-104 -177 0
-103 -178 0
-103 -180 0
-102 -179 0
-104 -180 0
-103 -177 0
-104 -185 0
-101 -182 0
-102 -182 0
-103 -182 0
-103 -183 0
-101 -185 0
-105 -185 0
-102 -196 0
-104 -197 0
-105 -197 0
-102 -198 0
-101 -197 0
-103 -196 0
-105 -198 0
-110 -111 0
-106 -115 0
-106 -111 0
-106 -113 0
-108 -113 0
-110 -114 0
-109 -115 0
-110 -116 0
-106 -120 0
-106 -119 0
-106 -116 0
-108 -117 0
-108 -119 0
-108 -116 0
-108 -125 0
-110 -124 0
-107 -121 0
-109 -121 0
-110 -122 0
-106 -121 0
-110 -125 0
-108 -168 0
-106 -169 0
-107 -166 0
-110 -168 0
-106 -167 0
-107 -170 0
-110 -169 0
-106 -177 0
-108 -179 0
-108 -176 0
-108 -177 0
-109 -176 0
-110 -178 0
-106 -180 0
-109 -181 0
-110 -183 0
-109 -185 0
-107 -182 0
-109 -184 0
-106 -184 0
-110 -184 0
-110 -186 0
-108 -190 0
-109 -188 0
-108 -186 0
-107 -187 0
-110 -188 0
-106 -187 0
-108 -192 0
-106 -193 0
-110 -193 0
-109 -194 0
-110 -192 0
-109 -195 0
-110 -194 0
-108 -197 0
-107 -198 0
-107 -197 0
-110 -196 0
-106 -197 0
-108 -200 0
-108 -199 0
-114 -130 0
-114 -128 0
-115 -129 0
-111 -126 0
-112 -129 0
-115 -128 0
-113 -130 0
-115 -134 0
-111 -134 0
-114 -132 0
-111 -132 0
-112 -131 0
-113 -132 0
-111 -135 0
-114 -137 0
-112 -137 0
-111 -139 0
-113 -138 0
-111 -137 0
-113 -137 0
-115 -140 0
-113 -145 0
-112 -145 0
-113 -143 0
-115 -142 0
-113 -144 0
-114 -142 0
-112 -144 0
-113 -149 0
-111 -146 0
-112 -150 0
-111 -147 0
-112 -149 0
-111 -149 0
-114 -149 0
-113 -160 0
-115 -159 0
-112 -160 0
-114 -156 0
-113 -158 0
-114 -158 0
-112 -156 0
-112 -163 0
-111 -163 0
-112 -165 0
-114 -164 0
-111 -164 0
-113 -163 0
-114 -161 0
-111 -187 0
-111 -189 0
-113 -188 0
-111 -186 0
-112 -186 0
-113 -187 0
-111 -188 0
-115 -194 0
-114 -193 0
-114 -192 0
-111 -194 0
-113 -192 0
-113 -193 0
-112 -191 0
-117 -121 0
-116 -121 0
-120 -124 0
-117 -123 0
-119 -121 0
-120 -125 0
-120 -121 0
-116 -130 0
-119 -126 0
-119 -130 0
-119 -128 0
-119 -129 0
-120 -128 0
-116 -126 0
-119 -136 0
-118 -139 0
-120 -139 0
-120 -140 0
-120 -136 0
-116 -139 0
-116 -140 0
-119 -141 0
-119 -142 0
-120 -145 0
-117 -142 0
-117 -141 0
-119 -143 0
-116 -144 0
-119 -148 0
-117 -150 0
-117 -147 0
-117 -146 0
-119 -146 0
-116 -146 0
-116 -148 0
-117 -152 0
-120 -152 0
-117 -151 0
-120 -154 0
-118 -152 0
-119 -154 0
-119 -151 0
-116 -175 0
-117 -171 0
-116 -172 0
-119 -173 0
-119 -172 0
-116 -173 0
-119 -174 0
-118 -177 0
-118 -176 0
-116 -180 0
-118 -179 0
-118 -180 0
-120 -177 0
-117 -177 0
-118 -197 0
-117 -197 0
-120 -199 0
-117 -198 0
-116 -199 0
-119 -198 0
-120 -198 0
-121 -126 0
-125 -128 0
-125 -127 0
-124 -130 0
-121 -128 0
-122 -130 0
-123 -129 0
-124 -132 0
-121 -131 0
-124 -133 0
-125 -131 0
-122 -135 0
-121 -134 0
-123 -134 0
-122 -137 0
-125 -140 0
-122 -139 0
-121 -137 0
-125 -136 0
-124 -140 0
-125 -138 0
-125 -141 0
-121 -145 0
-124 -141 0
-123 -141 0
-121 -141 0
-122 -143 0
-125 -144 0
-125 -148 0
-122 -150 0
-123 -149 0
-122 -147 0
-125 -146 0
-121 -150 0
-122 -149 0
-122 -155 0
-124 -155 0
-123 -152 0
-125 -151 0
-121 -153 0
-121 -151 0
-124 -154 0
-123 -165 0
-121 -163 0
-124 -162 0
-121 -165 0
-124 -163 0
-122 -165 0
-125 -162 0
-124 -169 0
-123 -170 0
-122 -169 0
-122 -168 0
-125 -170 0
-123 -166 0
-122 -167 0
-122 -191 0
-122 -195 0
-123 -192 0
-121 -193 0
-124 -192 0
-123 -194 0
-121 -192 0
-130 -132 0
-128 -134 0
-129 -133 0
-127 -135 0
-126 -133 0
-127 -133 0
-127 -134 0
-130 -143 0
-130 -142 0
-127 -144 0
-128 -141 0
-126 -145 0
-127 -145 0
-126 -144 0
-126 -169 0
-130 -169 0
-126 -167 0
-128 -170 0
-126 -170 0
-127 -170 0
-130 -170 0
-128 -178 0
-127 -176 0
-130 -177 0
-130 -180 0
-128 -176 0
-126 -179 0
-127 -179 0
-128 -192 0
-129 -194 0
-130 -194 0
-128 -194 0
-130 -191 0
-126 -195 0
-129 -193 0
-131 -136 0
-134 -138 0
-135 -139 0
-134 -136 0
-132 -136 0
-131 -139 0
-131 -140 0
-134 -151 0
-131 -153 0
-133 -154 0
-134 -154 0
-135 -155 0
-134 -155 0
-135 -152 0
-133 -157 0
-133 -160 0
-131 -157 0
-134 -159 0
-132 -157 0
-133 -158 0
-134 -158 0
-133 -161 0
-135 -162 0
-132 -165 0
-133 -163 0
-135 -164 0
-131 -161 0
-133 -164 0
-134 -170 0
-132 -166 0
-131 -169 0
-133 -167 0
-135 -168 0
-135 -166 0
-132 -169 0
-135 -174 0
-132 -173 0
-131 -173 0
-133 -171 0
-135 -175 0
-134 -172 0
-131 -171 0
-135 -188 0
-135 -189 0
-133 -187 0
-134 -187 0
-132 -190 0
-133 -186 0
-132 -188 0
-135 -194 0
-135 -191 0
-133 -195 0
-134 -195 0
-133 -192 0
-132 -191 0
-135 -195 0
-131 -196 0
-133 -198 0
-132 -198 0
-134 -196 0
-132 -197 0
-133 -200 0
-132 -199 0
-138 -147 0
-139 -149 0
-137 -149 0
-139 -146 0
-137 -146 0
-136 -148 0
-139 -147 0
-138 -161 0
-138 -162 0
-136 -165 0
-138 -164 0
-140 -163 0
-140 -164 0
-139 -164 0
-137 -173 0
-138 -175 0
-136 -171 0
-139 -175 0
-138 -172 0
-137 -174 0
-138 -173 0
-140 -178 0
-137 -180 0
-138 -179 0
-136 -177 0
-136 -176 0
-140 -179 0
-137 -179 0
-140 -199 0
-136 -200 0
-140 -197 0
-140 -198 0
-140 -200 0
-138 -200 0
-136 -198 0
-141 -152 0
-142 -153 0
-143 -153 0
-145 -152 0
-142 -152 0
-145 -153 0
-145 -154 0
-144 -157 0
-142 -158 0
-143 -160 0
-142 -157 0
-141 -159 0
-144 -160 0
-145 -156 0
-143 -173 0
-144 -174 0
-142 -172 0
-141 -173 0
-143 -172 0
-145 -171 0
-143 -174 0
-144 -180 0
-142 -177 0
-143 -178 0
-141 -179 0
-144 -179 0
-145 -177 0
-141 -176 0
-144 -188 0
-145 -187 0
-143 -188 0
-142 -188 0
-143 -186 0
-142 -189 0
-144 -186 0
-142 -194 0
-145 -193 0
-142 -195 0
-141 -195 0
-141 -193 0
-145 -191 0
-144 -193 0
-150 -156 0
-147 -156 0
-149 -159 0
-150 -157 0
-147 -159 0
-149 -156 0
-150 -158 0
-147 -168 0
-147 -170 0
-148 -167 0
-147 -167 0
-146 -170 0
-148 -170 0
-148 -166 0
-150 -188 0
-150 -189 0
-146 -189 0
-148 -189 0
-148 -190 0
-149 -186 0
-147 -189 0
-146 -199 0
-149 -197 0
-149 -196 0
-148 -196 0
-150 -198 0
-150 -200 0
-147 -198 0
-151 -158 0
-152 -160 0
-154 -160 0
-153 -156 0
-151 -160 0
-151 -157 0
-154 -157 0
-154 -165 0
-155 -162 0
-154 -163 0
-155 -163 0
-151 -164 0
-152 -165 0
-152 -163 0
-151 -170 0
-152 -168 0
-153 -166 0
-152 -169 0
-154 -169 0
-152 -167 0
-155 -170 0
-151 -179 0
-154 -180 0
-154 -176 0
-153 -177 0
-152 -180 0
-153 -176 0
-151 -177 0
-153 -182 0
-152 -182 0
-151 -185 0
-154 -181 0
-154 -182 0
-153 -181 0
-155 -181 0
-153 -186 0
-155 -186 0
-152 -190 0
-151 -187 0
-154 -188 0
-154 -187 0
-155 -189 0
-155 -197 0
-155 -199 0
-154 -199 0
-154 -198 0
-152 -196 0
-153 -200 0
-153 -198 0
-156 -162 0
-156 -163 0
-160 -164 0
-156 -161 0
-159 -163 0
-157 -165 0
-158 -162 0
-158 -170 0
-159 -168 0
-159 -169 0
-156 -167 0
-159 -167 0
-160 -167 0
-159 -170 0
-159 -179 0
-160 -180 0
-157 -180 0
-156 -180 0
-158 -177 0
-160 -178 0
-157 -177 0
-157 -181 0
-158 -185 0
-160 -185 0
-159 -183 0
-156 -184 0
-160 -181 0
-160 -183 0
-160 -193 0
-160 -194 0
-156 -192 0
-157 -192 0
-157 -194 0
-158 -194 0
-160 -192 0
-159 -200 0
-157 -199 0
-157 -198 0
-156 -199 0
-160 -199 0
-156 -196 0
-159 -196 0
-162 -170 0
-163 -169 0
-164 -169 0
-165 -169 0
-161 -168 0
-165 -168 0
-163 -166 0
-164 -183 0
-161 -183 0
-161 -182 0
-163 -185 0
-163 -181 0
-163 -183 0
-162 -185 0
-163 -190 0
-164 -187 0
-164 -190 0
-163 -187 0
-162 -186 0
-163 -189 0
-163 -186 0
-166 -177 0
-168 -178 0
-167 -178 0
-168 -180 0
-166 -179 0
-170 -176 0
-167 -176 0
-168 -182 0
-169 -182 0
-168 -185 0
-169 -183 0
-168 -183 0
-170 -185 0
-166 -185 0
-168 -188 0
-170 -186 0
-170 -187 0
-166 -186 0
-169 -186 0
-166 -187 0
-168 -187 0
-166 -192 0
-169 -193 0
-166 -191 0
-169 -195 0
-169 -191 0
-167 -193 0
-166 -194 0
-166 -200 0
-170 -199 0
-168 -197 0
-166 -197 0
-169 -198 0
-169 -200 0
-167 -198 0
-172 -183 0
-174 -182 0
-175 -183 0
-174 -184 0
-172 -184 0
-175 -185 0
-175 -181 0
-173 -196 0
-172 -198 0
-172 -200 0
-173 -198 0
-175 -198 0
-174 -200 0
-172 -196 0
-177 -184 0
-176 -183 0
-180 -183 0
-178 -183 0
-179 -184 0
-178 -185 0
-179 -181 0
-179 -193 0
-176 -195 0
-178 -191 0
-180 -194 0
-179 -191 0
-180 -195 0
-179 -194 0
-185 -191 0
-182 -194 0
-181 -191 0
-182 -192 0
-184 -191 0
-185 -194 0
-184 -194 0
-181 -198 0
-183 -198 0
-184 -197 0
-182 -198 0
-185 -197 0
-181 -200 0
-185 -196 0
-190 -194 0
-190 -191 0
-186 -194 0
-189 -192 0
-187 -192 0
-186 -191 0
-188 -193 0
-190 -197 0
-187 -197 0
-190 -198 0
-189 -196 0
-189 -197 0
-186 -199 0
-188 -200 0
-192 -199 0
-194 -200 0
-192 -197 0
-195 -196 0
-194 -199 0
-195 -200 0
-192 -200 0
